48 48
19 23
3 20
12 32
18 3
22 6
14 9
13 18
17 46
21 37
24 28
12 47
20 2
11 36
16 30
16 34
7 4
10 5
5 12
21 26
1 48
13 22
6 19
9 42
15 41
4 1
8 11
4 7
2 43
23 8
3 38
24 16
17 45
20 39
11 24
15 29
8 40
14 14
19 35
6 17
9 21
2 25
23 10
18 27
7 31
22 33
5 13
1 44
10 15
